(set-logic HORN)
(declare-fun inv ((_ BitVec 64) (_ BitVec 64) (_ BitVec 64) (_ BitVec 64) (_ BitVec 64) ) Bool)
(assert (forall ((x (_ BitVec 64)) (y (_ BitVec 64)) (i (_ BitVec 64)) (j (_ BitVec 64)) (turn (_ BitVec 64))) 
       (=> ( and ( = x (_ bv0 64) ) ( = y (_ bv0 64) ) ( = i (_ bv0 64) ) ( = j (_ bv0 64) ) ( = turn (_ bv0 64) ) ) (inv x y i j turn))))
(assert (forall ((x (_ BitVec 64)) (y (_ BitVec 64)) (i (_ BitVec 64)) (j (_ BitVec 64)) (turn (_ BitVec 64)) (x! (_ BitVec 64)) (y! (_ BitVec 64)) (i! (_ BitVec 64)) (j! (_ BitVec 64)) (turn! (_ BitVec 64))) 
       (=> (and (inv x y i j turn) ( or ( and ( = turn (_ bv0 64) ) ( = x! x ) ( = y! y ) ( = i! i ) ( = j! j ) ( = turn! (_ bv1 64) ) ) ( and ( = turn (_ bv0 64) ) ( = x! x ) ( = y! y ) ( = i! i ) ( = j! j ) ( = turn! (_ bv2 64) ) ) ( and ( = turn (_ bv1 64) ) ( = x y ) ( = x! x ) ( = y! y ) ( = i! ( bvadd i (_ bv1 64) ) ) ( = j! j ) ( = turn! (_ bv1 64) ) ) ( and ( = turn (_ bv1 64) ) ( = x y ) ( = x! x ) ( = y! y ) ( = i! ( bvadd i (_ bv1 64) ) ) ( = j! j ) ( = turn! (_ bv2 64) ) ) ( and ( = turn (_ bv1 64) ) ( not ( = x y ) ) ( = x! x ) ( = y! y ) ( = i! i ) ( = j! ( bvadd j (_ bv1 64) ) ) ( = turn! (_ bv1 64) ) ) ( and ( = turn (_ bv1 64) ) ( not ( = x y ) ) ( = x! x ) ( = y! y ) ( = i! i ) ( = j! ( bvadd j (_ bv1 64) ) ) ( = turn! (_ bv2 64) ) ) ( and ( = turn (_ bv2 64) ) ( bvsge i j ) ( = x! ( bvadd x (_ bv1 64) ) ) ( = y! ( bvadd y (_ bv1 64) ) ) ( = i! i ) ( = j! j ) ( = turn! (_ bv0 64) ) ) ( and ( = turn (_ bv2 64) ) ( bvslt i j ) ( = x! x ) ( = y! ( bvadd y (_ bv1 64) ) ) ( = i! i ) ( = j! j ) ( = turn! (_ bv0 64) ) ) )) (inv x! y! i! j! turn!))))
(assert (forall ((x (_ BitVec 64)) (y (_ BitVec 64)) (i (_ BitVec 64)) (j (_ BitVec 64)) (turn (_ BitVec 64))) 
       (=> (inv x y i j turn) ( bvsge i j ))))
(check-sat)
